
###########################################################################
#
#                 Cambridge Crystallographic Data Centre
#                                CCDC 
# 
###########################################################################
#
#  This CIF contains data generated directly from an entry in the Cambridge 
#  Structural Database and will include bibliographic, chemical, crystal, 
#  experimental, refinement, and atomic coordinate data, as available.
#     
#  Copyright  2006  The Cambridge Crystallographic Data Centre
# 
#  This CIF is provided on the understanding that it is used for bona fide 
#  research purposes only.  It may contain copyright material of the CCDC
#  or of third parties, and may not be copied or further disseminated in 
#  any form, whether machine-readable or not, except for the purpose of 
#  generating routine backup copies on your local computer system.
# 
#  For further information about the CCDC, data deposition and data 
#  retrieval see <www.ccdc.cam.ac.uk>. Bona fide researchers may freely 
#  download  Mercury and enCIFer from this site to visualise CIF-encoded 
#  structures and to carry out CIF format checking respectively.
#
###########################################################################

data_CSD_CIF_DMANTL01
_audit_creation_date 1971-12-31
_audit_creation_method CSD-ConQuest-V1
_database_code_CSD DMANTL01
_chemical_formula_sum 'C6 H14 O6'
_chemical_formula_moiety
;
C6 H14 O6
;
_journal_coeditor_code "IUCr A06287"
_journal_coden_Cambridge 107
_journal_volume 24
_journal_year 1968
_journal_page_first 1449
_journal_name_full 'Acta Crystallogr.,Sect.B:Struct.Crystallogr.Cryst.Chem. '
loop_
_publ_author_name
"H.S.Kim"
"G.A.Jeffrey"
"R.D.Rosenstein"
_chemical_name_systematic
;
D-Mannitol
;
_cell_volume    822.473
_exptl_crystal_density_diffrn 1.471
_exptl_special_details
;
Kappo polymorph

;
_diffrn_ambient_temperature ?
_diffrn_special_details
;
The study was carried out at room temperature,in the range 283-303K

;
#These two values have been output from a single CSD field.
_refine_ls_R_factor_gt 0.049
_refine_ls_wR_factor_gt 0.049
_symmetry_cell_setting orthorhombic
_symmetry_space_group_name_H-M 'P 21 21 21'
_symmetry_Int_Tables_number 19
loop_
_symmetry_equiv_pos_site_id
_symmetry_equiv_pos_as_xyz
1 x,y,z
2 1/2+x,1/2-y,-z
3 -x,1/2+y,1/2-z
4 1/2-x,-y,1/2+z
_cell_length_a 8.942(5)
_cell_length_b 18.798(9)
_cell_length_c 4.893(4)
_cell_angle_alpha 90
_cell_angle_beta 90
_cell_angle_gamma 90
_cell_formula_units_Z 4
loop_
_atom_type_symbol
_atom_type_radius_bond
C 0.68
H 0.20
O 0.68
loop_
_atom_site_label
_atom_site_type_symbol
_atom_site_fract_x
_atom_site_fract_y
_atom_site_fract_z
C1 C 0.49510 -0.01270 -0.13010
C2 C 0.46260 0.05160 0.04560
C3 C 0.43270 0.11840 -0.12040
C4 C 0.41370 0.18490 0.05470
C5 C 0.39500 0.25240 -0.11160
C6 C 0.38520 0.31950 0.06180
H1 H 0.61100 0.01600 -0.38600
H2 H 0.40700 -0.02700 -0.25500
H3 H 0.50100 -0.05400 -0.02700
H4 H 0.67000 0.05300 0.14300
H5 H 0.38300 0.04400 0.19100
H6 H 0.23200 0.12000 -0.19400
H7 H 0.51700 0.12400 -0.24400
H8 H 0.29700 0.15300 0.35800
H9 H 0.50600 0.18600 0.15900
H10 H 0.59400 0.27700 -0.22800
H11 H 0.30600 0.25300 -0.20000
H12 H 0.50000 0.31300 0.35000
H13 H 0.28800 0.31600 0.19000
H14 H 0.36800 0.35900 -0.06500
O1 O 0.63060 -0.00450 -0.27850
O2 O 0.58220 0.06410 0.23140
O3 O 0.30450 0.10730 -0.29050
O4 O 0.28350 0.17780 0.22120
O5 O 0.51490 0.25830 -0.30410
O6 O 0.51880 0.33070 0.21060
#END
